p cnf 22 50
-8 9 -15 0
7 8 -9 0
-2 14 -16 0
-7 -12 -21 0
-7 -8 -10 0
8 12 17 0
-10 -14 -17 0
-3 -6 -16 0
5 -6 -19 0
-3 -10 18 0
-1 -20 -22 0
-11 18 -20 0
8 13 15 0
-7 -9 -20 0
4 -8 -20 0
2 -11 22 0
-14 -18 -20 0
5 -17 18 0
5 17 -19 0
-3 11 -17 0
-1 7 -12 0
2 3 -13 0
-12 -13 20 0
-3 -7 17 0
-3 -4 11 0
12 -19 21 0
-12 -14 16 0
-7 10 18 0
-3 -9 -14 0
1 20 -22 0
-4 11 12 0
-10 -16 -18 0
-5 7 -17 0
-1 -4 19 0
13 14 -21 0
-7 15 18 0
-4 -9 12 0
9 11 16 0
-3 -15 -21 0
2 15 -19 0
-5 16 17 0
-4 5 -6 0
6 -12 -20 0
-3 11 13 0
-14 -15 -18 0
-2 -4 10 0
12 17 19 0
1 -8 15 0
-8 11 20 0
-11 -16 -18 0
